Route #1: 25 46 40 11 3 20 16
Route #2: 4 21 53 30 49 44 28 6
Route #3: 31 36 22 48 1 2
Route #4: 42 45 5 54 10
Route #5: 34 24 58 23 47 14
Route #6: 50 43 56 12 51 9 32
Route #7: 18 19 27 57 37 17 26 39
Route #8: 35 55 15 8 13 29 7
Route #9: 52 59 38 33 41
Cost 1354
Time 0.117912
